35
1 0 73
2 0 17
2 1 31
3 0 47
3 1 37
3 2 64
4 0 67
4 1 63
4 2 87
4 3 86
5 0 50
5 1 73
5 2 100
5 3 66
5 4 65
6 0 31
6 1 28
6 2 63
6 3 88
6 4 98
6 5 86
7 0 50
7 1 11
7 2 1
7 3 8
7 4 96
7 5 67
7 6 30
8 0 19
8 1 71
8 2 58
8 3 27
8 4 77
8 5 75
8 6 26
8 7 19
9 0 10
9 1 29
9 2 16
9 3 87
9 4 36
9 5 53
9 6 28
9 7 95
9 8 34
10 0 46
10 1 52
10 2 3
10 3 32
10 4 32
10 5 22
10 6 37
10 7 1
10 8 25
10 9 61
11 0 12
11 1 85
11 2 57
11 3 80
11 4 6
11 5 1
11 6 41
11 7 53
11 8 38
11 9 93
11 10 78
12 0 94
12 1 11
12 2 31
12 3 30
12 4 4
12 5 5
12 6 64
12 7 15
12 8 55
12 9 43
12 10 98
12 11 1
13 0 34
13 1 56
13 2 36
13 3 92
13 4 75
13 5 34
13 6 14
13 7 47
13 8 37
13 9 19
13 10 18
13 11 74
13 12 7
14 0 93
14 1 51
14 2 80
14 3 47
14 4 69
14 5 16
14 6 75
14 7 4
14 8 63
14 9 100
14 10 62
14 11 57
14 12 43
14 13 94
15 0 67
15 1 70
15 2 49
15 3 86
15 4 69
15 5 65
15 6 51
15 7 1
15 8 62
15 9 55
15 10 78
15 11 84
15 12 39
15 13 80
15 14 38
16 0 43
16 1 92
16 2 44
16 3 22
16 4 100
16 5 60
16 6 51
16 7 41
16 8 25
16 9 65
16 10 82
16 11 57
16 12 43
16 13 42
16 14 62
16 15 100
17 0 32
17 1 17
17 2 4
17 3 85
17 4 66
17 5 24
17 6 44
17 7 64
17 8 76
17 9 38
17 10 91
17 11 86
17 12 2
17 13 76
17 14 55
17 15 46
17 16 91
18 0 3
18 1 35
18 2 42
18 3 59
18 4 23
18 5 77
18 6 80
18 7 95
18 8 64
18 9 35
18 10 85
18 11 20
18 12 67
18 13 85
18 14 22
18 15 85
18 16 57
18 17 92
19 0 20
19 1 100
19 2 42
19 3 23
19 4 58
19 5 16
19 6 69
19 7 42
19 8 67
19 9 3
19 10 50
19 11 59
19 12 46
19 13 4
19 14 12
19 15 86
19 16 86
19 17 39
19 18 45
20 0 52
20 1 75
20 2 15
20 3 65
20 4 59
20 5 15
20 6 43
20 7 91
20 8 87
20 9 61
20 10 82
20 11 23
20 12 93
20 13 91
20 14 52
20 15 64
20 16 30
20 17 43
20 18 97
20 19 12
21 0 23
21 1 88
21 2 82
21 3 37
21 4 44
21 5 30
21 6 45
21 7 3
21 8 85
21 9 36
21 10 66
21 11 2
21 12 31
21 13 51
21 14 2
21 15 8
21 16 60
21 17 53
21 18 95
21 19 81
21 20 39
22 0 42
22 1 78
22 2 66
22 3 99
22 4 66
22 5 12
22 6 68
22 7 81
22 8 45
22 9 33
22 10 4
22 11 9
22 12 38
22 13 11
22 14 62
22 15 29
22 16 49
22 17 21
22 18 8
22 19 12
22 20 87
22 21 96
23 0 35
23 1 20
23 2 27
23 3 18
23 4 45
23 5 66
23 6 14
23 7 42
23 8 85
23 9 37
23 10 29
23 11 83
23 12 11
23 13 58
23 14 11
23 15 6
23 16 26
23 17 98
23 18 73
23 19 89
23 20 29
23 21 60
23 22 96
24 0 54
24 1 66
24 2 16
24 3 73
24 4 93
24 5 66
24 6 59
24 7 18
24 8 31
24 9 18
24 10 85
24 11 88
24 12 87
24 13 4
24 14 46
24 15 81
24 16 48
24 17 2
24 18 19
24 19 94
24 20 66
24 21 29
24 22 85
24 23 55
25 0 15
25 1 79
25 2 20
25 3 78
25 4 97
25 5 77
25 6 32
25 7 96
25 8 81
25 9 70
25 10 8
25 11 64
25 12 97
25 13 95
25 14 42
25 15 50
25 16 33
25 17 21
25 18 70
25 19 48
25 20 5
25 21 57
25 22 23
25 23 79
25 24 95
26 0 43
26 1 79
26 2 76
26 3 79
26 4 100
26 5 78
26 6 56
26 7 88
26 8 92
26 9 25
26 10 26
26 11 75
26 12 16
26 13 94
26 14 90
26 15 87
26 16 41
26 17 19
26 18 33
26 19 52
26 20 52
26 21 21
26 22 18
26 23 41
26 24 77
26 25 12
27 0 15
27 1 62
27 2 82
27 3 90
27 4 33
27 5 93
27 6 97
27 7 83
27 8 53
27 9 67
27 10 79
27 11 35
27 12 67
27 13 58
27 14 31
27 15 40
27 16 61
27 17 39
27 18 53
27 19 44
27 20 18
27 21 4
27 22 57
27 23 96
27 24 12
27 25 84
27 26 6
28 0 11
28 1 35
28 2 88
28 3 45
28 4 59
28 5 58
28 6 55
28 7 34
28 8 27
28 9 37
28 10 1
28 11 98
28 12 86
28 13 3
28 14 88
28 15 59
28 16 69
28 17 100
28 18 61
28 19 20
28 20 60
28 21 69
28 22 19
28 23 4
28 24 22
28 25 70
28 26 19
28 27 75
29 0 32
29 1 19
29 2 36
29 3 93
29 4 1
29 5 53
29 6 15
29 7 82
29 8 83
29 9 73
29 10 3
29 11 5
29 12 16
29 13 19
29 14 38
29 15 92
29 16 47
29 17 72
29 18 24
29 19 42
29 20 24
29 21 92
29 22 46
29 23 10
29 24 63
29 25 44
29 26 77
29 27 56
29 28 28
30 0 56
30 1 90
30 2 95
30 3 80
30 4 20
30 5 85
30 6 94
30 7 69
30 8 37
30 9 85
30 10 100
30 11 94
30 12 45
30 13 63
30 14 93
30 15 54
30 16 9
30 17 2
30 18 98
30 19 44
30 20 38
30 21 2
30 22 99
30 23 89
30 24 74
30 25 96
30 26 44
30 27 24
30 28 56
30 29 20
31 0 34
31 1 39
31 2 64
31 3 57
31 4 24
31 5 71
31 6 98
31 7 59
31 8 90
31 9 96
31 10 23
31 11 3
31 12 40
31 13 63
31 14 19
31 15 47
31 16 67
31 17 75
31 18 99
31 19 83
31 20 79
31 21 89
31 22 82
31 23 4
31 24 39
31 25 17
31 26 31
31 27 39
31 28 24
31 29 33
31 30 15
32 0 17
32 1 67
32 2 22
32 3 35
32 4 65
32 5 45
32 6 28
32 7 17
32 8 51
32 9 33
32 10 83
32 11 88
32 12 26
32 13 30
32 14 28
32 15 61
32 16 35
32 17 33
32 18 57
32 19 17
32 20 83
32 21 3
32 22 45
32 23 43
32 24 89
32 25 76
32 26 36
32 27 72
32 28 69
32 29 74
32 30 8
32 31 36
33 0 15
33 1 53
33 2 48
33 3 20
33 4 74
33 5 80
33 6 83
33 7 89
33 8 35
33 9 13
33 10 66
33 11 14
33 12 85
33 13 58
33 14 16
33 15 27
33 16 93
33 17 96
33 18 47
33 19 82
33 20 24
33 21 13
33 22 43
33 23 95
33 24 100
33 25 88
33 26 69
33 27 94
33 28 54
33 29 9
33 30 15
33 31 6
33 32 53
34 0 25
34 1 14
34 2 53
34 3 77
34 4 56
34 5 93
34 6 39
34 7 83
34 8 17
34 9 34
34 10 55
34 11 94
34 12 32
34 13 58
34 14 27
34 15 88
34 16 34
34 17 67
34 18 79
34 19 73
34 20 89
34 21 93
34 22 5
34 23 90
34 24 92
34 25 48
34 26 48
34 27 61
34 28 97
34 29 78
34 30 49
34 31 78
34 32 16
34 33 52
